c --- [ banner ] -------------------------------------------------------------
c 
c CaDiCaL Radically Simplified CDCL SAT Solver
c Copyright (c) 2016-2021 A. Biere, M. Fleury, N. Froleyks
c 
c Version 1.5.2 a5f15211db36c3956764e18194dd5bd63bf3b5e6
c g++ (GCC) 9.3.0 -Wall -Wextra -O3 -DNDEBUG
c Fri Oct 21 01:27:37 EDT 2022 Linux gra-login3 3.10.0-1160.66.1.el7.x86_64 x86_64
c 
c --- [ limit ] --------------------------------------------------------------
c 
c setting conflict limit to 200000 conflicts (due to '200000')
c 
c --- [ parsing input ] ------------------------------------------------------
c 
c reading DIMACS file from '33.cubes869.adj'
c opening file to read '33.cubes869.adj'
c found 'p cnf 6160 1595467' header
c parsed 1595467 clauses in 19.48 seconds process time
c closing file '33.cubes869.adj'
c after reading 1457566721 bytes 1390.0 MB
c 
c --- [ options ] ------------------------------------------------------------
c 
c all options are set to their default value
c 
c --- [ solving ] ------------------------------------------------------------
c 
c time measured in process time since initialization
c 
c  seconds    reductions  redundant   irredundant
c          MB     restarts       trail       variables
c            level   conflicts       glue         remaining
c 
c * 19.48 1368  0 0   0    0    0  0% 0 1595422 2465 40%
c { 20.73 1413  0 0   0    0    0  0% 0 1595422 2465 40%
c i 23.03 1475 822 0   4   31   28 36% 5 1595422 2461 40%
c i 23.91 1480 354 0   6   72   48 26% 6 1595422 2456 40%
c i 24.67 1488 266 0  13  104   77 27% 16 1595422 2454 40%
c i 25.00 1488 250 0  15  118   83 27% 17 1595422 2451 40%
c i 25.10 1488 246 0  16  126   83 26% 16 1595422 2443 40%
c i 26.13 1492 167 0  40  225  163 27% 27 1595422 2442 40%
c i 26.23 1493 162 0  43  235  172 28% 28 1595422 2441 40%
c i 26.26 1493 162 0  43  236  172 28% 28 1595422 2440 40%
c i 26.41 1494 157 0  46  247  181 27% 27 1595422 2439 40%
c i 26.41 1494 155 0  46  250  183 27% 26 1595422 2438 40%
c i 26.41 1494 154 0  46  251  183 27% 26 1595422 2437 40%
c i 26.41 1494 154 0  46  252  183 27% 26 1595422 2436 40%
c i 26.71 1494 140 0  49  297  221 27% 27 1595422 2435 40%
c - 30.40 1421 139 1  50  301  222 27% 27 277637 2435 40%
c i 30.86 1421 127 1  58  355  267 27% 27 277637 2434 40%
c i 30.88 1421 127 1  58  359  270 27% 27 277637 2433 39%
c i 30.89 1421 126 1  58  361  271 27% 27 277637 2432 39%
c i 30.89 1421 126 1  58  363  271 27% 28 277637 2431 39%
c 
c  seconds     reductions  redundant   irredundant
c          MB      restarts       trail       variables
c             level   conflicts       glue         remaining
c 
c i 30.89 1421 126 1  58  364  271 27% 27 277637 2430 39%
c i 30.94 1421 124 1  58  374  279 27% 28 277637 2429 39%
c i 30.97 1421 123 1  59  383  286 27% 28 277637 2428 39%
c i 31.07 1421 115 1  64  423  319 27% 28 277637 2427 39%
c i 31.07 1421 115 1  64  424  319 27% 28 277637 2426 39%
c i 31.07 1421 114 1  64  429  319 27% 28 277637 2425 39%
c i 31.07 1421 114 1  64  430  319 27% 28 277637 2424 39%
c i 31.07 1421 113 1  64  431  319 27% 28 277637 2423 39%
c i 31.08 1421 113 1  64  434  319 27% 28 277637 2422 39%
c i 31.10 1421 110 1  64  452  333 28% 28 277637 2421 39%
c i 31.10 1421 109 1  64  456  336 28% 28 277637 2420 39%
c i 31.11 1421 109 1  64  457  336 28% 28 277637 2419 39%
c i 31.11 1421 109 1  64  458  336 28% 27 277637 2418 39%
c i 31.47 1421 106 1  65  497  369 27% 28 277637 2417 39%
c i 31.51 1421 106 1  65  500  371 27% 28 277637 2416 39%
c i 31.59 1421 105 1  66  505  375 27% 28 277637 2407 39%
c i 31.59 1421 105 1  66  509  378 27% 28 277637 2406 39%
c i 31.67 1421 104 1  68  517  385 28% 28 277637 2405 39%
c i 32.34 1421 106 1  77  628  477 27% 27 277637 2404 39%
c i 32.39 1421 105 1  77  639  485 27% 27 277637 2403 39%
c 
c  seconds    reductions  redundant   irredundant
c          MB     restarts       trail       variables
c            level   conflicts       glue         remaining
c 
c i 32.59 1421 98 1  77  687  521 27% 26 277637 2402 39%
c i 32.60 1421 98 1  77  688  521 27% 26 277637 2401 39%
c i 32.60 1421 98 1  77  689  521 27% 26 277637 2400 39%
c i 32.60 1421 98 1  77  691  522 27% 26 277637 2399 39%
c i 32.61 1421 98 1  77  693  523 27% 26 277637 2398 39%
c i 32.61 1421 98 1  77  694  523 27% 26 277637 2397 39%
c i 33.24 1421 86 1  79  830  617 27% 25 277637 2396 39%
c i 33.32 1421 79 1  79  919  684 28% 24 277637 2395 39%
c i 33.36 1421 77 1  79  971  725 28% 24 277637 2394 39%
c i 33.43 1421 75 1  79 1000  743 28% 23 277637 2393 39%
c } 33.43 1421 75 1  79 1000  743 28% 23 277637 2393 39%
c [ 33.43 1421  0 1  79 1000  743  0% 0 277637 2393 39%
c O 33.45 1421  3 1  79 1002  745 17% 2 277637 2393 39%
c i 33.83 1421  9 1  79 1050  763 21% 8 277637 2392 39%
c i 33.85 1421 12 1  79 1059  770 22% 10 277637 2391 39%
c i 33.86 1421 12 1  79 1061  771 22% 11 277637 2390 39%
c i 34.00 1421 24 1  79 1146  836 26% 21 277637 2389 39%
c i 34.03 1421 25 1  79 1163  848 27% 21 277637 2388 39%
c i 34.04 1421 25 1  79 1168  851 27% 21 277637 2387 39%
c - 34.64 1546 25 2  79 1168  746 27% 21 277366 2387 39%
c 
c  seconds    reductions  redundant   irredundant
c          MB     restarts       trail       variables
c            level   conflicts       glue         remaining
c 
c i 34.86 1546 26 2  79 1230  794 28% 22 277366 2386 39%
c i 34.87 1546 26 2  79 1238  800 28% 22 277366 2385 39%
c i 34.87 1546 26 2  79 1239  800 28% 22 277366 2384 39%
c i 34.88 1546 26 2  79 1248  807 28% 22 277366 2383 39%
c i 34.90 1546 26 2  79 1273  823 28% 22 277366 2382 39%
c i 34.97 1546 25 2  79 1446  918 29% 21 277366 2381 39%
c i 34.98 1546 25 2  79 1462  928 29% 21 277366 2380 39%
c i 35.03 1546 24 2  79 1536  966 29% 21 277366 2379 39%
c i 35.07 1546 24 2  79 1548  970 29% 21 277366 2378 39%
c i 35.09 1546 24 2  79 1574  982 29% 21 277366 2377 39%
c i 35.10 1546 24 2  79 1577  984 29% 21 277366 2376 39%
c i 35.10 1546 24 2  79 1579  984 29% 21 277366 2375 39%
c i 35.14 1546 26 2  79 1671 1040 29% 22 277366 2374 39%
c i 35.14 1546 25 2  79 1673 1040 29% 22 277366 2373 39%
c i 35.19 1546 25 2  79 1776 1112 29% 22 277366 2372 39%
c i 35.23 1546 25 2  79 1838 1147 30% 22 277366 2371 38%
c i 35.31 1546 24 2  79 1886 1170 30% 21 277366 2370 38%
c i 35.34 1546 24 2  79 1919 1192 30% 21 277366 2369 38%
c i 35.34 1546 24 2  79 1922 1194 30% 21 277366 2368 38%
c i 35.39 1546 23 2  79 2017 1258 30% 20 277366 2367 38%
c 
c  seconds    reductions  redundant   irredundant
c          MB     restarts       trail       variables
c            level   conflicts       glue         remaining
c 
c i 35.45 1546 23 2  80 2127 1339 30% 20 277366 2366 38%
c i 35.45 1546 23 2  80 2129 1340 30% 20 277366 2365 38%
c i 35.46 1546 22 2  80 2157 1349 30% 20 277366 2364 38%
c i 35.49 1546 22 2  80 2203 1365 30% 19 277366 2363 38%
c i 35.60 1546 21 2  80 2412 1451 30% 19 277366 2362 38%
c - 36.09 1541 21 3  80 2466 1084 30% 18 277291 2362 38%
c i 36.48 1470 21 3  80 2492 1093 53% 18 277291 2361 38%
c i 36.52 1470 21 3  80 2500 1093 53% 18 277291 2360 38%
c i 36.55 1470 21 3  80 2513 1101 54% 18 277291 2359 38%
c ] 36.76 1470 19 3  80 3001 1310 55% 17 277291 2359 38%
c { 36.76 1470 75 3  80 3001 1310 72% 23 277291 2359 38%
c F 36.81 1470 75 3  80 3004 1313 72% 23 277291 2359 38%
c i 37.07 1470 73 3  80 3033 1335 71% 23 277291 2358 38%
c i 37.19 1470 73 3  80 3050 1351 71% 23 277291 2357 38%
c i 37.44 1470 70 3  86 3135 1402 68% 23 277291 2356 38%
c i 37.80 1470 70 3  98 3190 1451 67% 23 277291 2355 38%
c i 37.85 1470 70 3 100 3196 1456 67% 23 277291 2344 38%
c i 38.19 1470 68 3 100 3250 1498 66% 23 277291 2343 38%
c i 38.90 1470 68 3 122 3361 1589 64% 24 277291 2342 38%
c i 38.93 1470 67 3 122 3383 1605 63% 24 277291 2341 38%
c 
c  seconds    reductions  redundant   irredundant
c          MB     restarts       trail       variables
c            level   conflicts       glue         remaining
c 
c i 38.94 1470 67 3 123 3391 1608 63% 24 277291 2340 38%
c i 39.12 1470 66 3 132 3474 1670 63% 24 277291 2339 38%
c i 39.19 1470 64 3 135 3523 1704 62% 24 277291 2338 38%
c i 39.25 1470 64 3 135 3541 1718 62% 24 277291 2337 38%
c i 39.59 1469 64 3 139 3571 1746 62% 24 277291 2336 38%
c i 39.74 1469 64 3 143 3593 1763 62% 25 277291 2335 38%
c i 39.90 1469 63 3 149 3641 1801 61% 24 277291 2334 38%
c - 40.73 1351 53 4 152 4199 1592 59% 24 276765 2334 38%
c i 41.10 1351 53 4 160 4256 1640 58% 24 276765 2333 38%
c i 41.50 1351 53 4 177 4372 1738 58% 24 276765 2332 38%
c i 42.34 1351 53 4 195 4538 1842 56% 24 276765 2331 38%
c i 42.53 1351 52 4 201 4563 1864 56% 24 276765 2330 38%
c i 42.58 1351 53 4 203 4572 1870 56% 25 276765 2329 38%
c i 43.54 1351 53 4 249 4750 2028 56% 26 276765 2328 38%
c d 44.78 1351 52 4 277 5000 2197 54% 25 276713 2311 38%
c 2 44.85 1351 52 4 277 5000 3426 54% 25 276691 2309 37%
c p 51.93 1351 52 4 277 5000 6581 54% 25 276691 2225 36%
c d 52.39 1351 52 4 277 5000 6477 54% 25 276431 2222 36%
c # 54.63 1351 47 4 328 6005 7269 53% 25 276431 2222 36%
c - 55.33 1353 46 5 345 6362 2458 52% 25 276431 2222 36%
c 
c  seconds    reductions  redundant   irredundant
c          MB     restarts       trail       variables
c            level   conflicts       glue         remaining
c 
c } 55.45 1353 44 5 345 6761 2742 52% 25 276431 2222 36%
c 1 55.45 1353 44 5 345 6761 2742 52% 25 276431 2222 36%
c 
c --- [ writing output ] -----------------------------------------------------
c 
c writing simplified CNF to DIMACS file 'simp/33.cubes869.adj.simp1'
c * 55.45 1353 44 5 345 6761 2742 52% 25 276431 2222 36%
c opening file to write 'simp/33.cubes869.adj.simp1'
c writing 'p cnf 6160 276431' header
c closing file 'simp/33.cubes869.adj.simp1'
c after writing 114261550 bytes 109.0 MB
c wrote 276431 clauses in 0.84 seconds process time
c 
c --- [ writing extension ] --------------------------------------------------
c 
c writing extension stack to 'simp/33.cubes869.adj.ext1'
c opening file to write 'simp/33.cubes869.adj.ext1'
c closing file 'simp/33.cubes869.adj.ext1'
c after writing 12236 bytes 0.0 MB
c wrote 814 witnesses in 0.00 seconds process time
c 
c --- [ result ] -------------------------------------------------------------
c 
s SATISFIABLE
c 
c --- [ run-time profiling ] -------------------------------------------------
c 
c process time taken by individual solving procedures
c (percentage relative to process time for solving)
c 
c        27.86   77.46% search
c        23.28   64.72% unstable
c        19.48   54.16% parse
c         8.11   22.54% simplify
c         7.08   19.68% probe
c         3.33    9.26% stable
c         1.25    3.48% lucky
c         0.05    0.13% ternary
c   =================================
c        35.97   63.90% solve
c 
c last line shows process time for solving
c (percentage relative to total process time)
c 
c --- [ statistics ] ---------------------------------------------------------
c 
c chronological:              1490        22.04 %  of conflicts
c conflicts:                  6761       187.96    per second
c decisions:                 35694       992.30    per second
c fixed:                       774        12.56 %  of all variables
c learned:                    6603        97.66 %  per conflict
c learned_lits:            1294537       100.00 %  learned literals
c minimized:                     0         0.00 %  learned literals
c shrunken:                 864756        66.80 %  learned literals
c minishrunken:              84409         6.52 %  learned literals
c propagations:            1277582         0.04 M  per second
c reduced:                    2033        30.07 %  per conflict
c rephased:                      3      2253.67    interval
c restarts:                    345        19.60    interval
c stabilizing:                   1        29.60 %  of conflicts
c substituted:                  20         0.32 %  of all variables
c subsumed:                   1860         0.06 %  of all clauses
c ternary:                    1230         0.52 %  of resolved
c weakened:                     40         2.00    average size
c 
c seconds are measured in process time for solving
c 
c --- [ resources ] ----------------------------------------------------------
c 
c total process time since initialization:        56.29    seconds
c total real time since initialization:           56.49    seconds
c maximum resident set size of process:         1665.40    MB
c 
c --- [ shutting down ] ------------------------------------------------------
c 
c exit 10
WARNING! DIMACS header mismatch: wrong number of variables.
============================[ Problem Statistics ]=============================
|                                                                             |
|  Number of variables:          6120                                         |
|  Number of clauses:          276431                                         |
|  Parse time:                   1.53 s                                       |
|  Simplification time:          0.03 s                                       |
|                                                                             |
============================[ Search Statistics ]====================================================
| Conflicts |          ORIGINAL         |          LEARNT          | Num Sols |      SUBGRAPHS      |
|           |    Vars  Clauses Literals |    Limit  Clauses Lit/Cl |          | Canonical Noncanon. |
=====================================================================================================
|       151 |    6029   276482 25177187 |     2000      151     20 |        0 |        40        51 |
|       312 |    6029   276493 25177321 |     2000      312     72 |        0 |        51        62 |
|       615 |    6029   276571 25178738 |     2000      615     76 |        0 |        72       140 |
|      1036 |    6029   276655 25180309 |     2000     1036     85 |        0 |       115       224 |
|      1559 |    6029   276672 25180819 |     2000     1559     94 |        0 |       125       241 |
|      2408 |    6029   276762 25181908 |     3599     1407     61 |        0 |       138       331 |
|      3580 |    6029   276795 25182370 |     3599     2579     86 |        0 |       170       364 |
|      5324 |    6029   276831 25183034 |     5001     2525     76 |        0 |       199       400 |
|      8071 |    6029   277016 25186682 |     6307     2778     69 |        0 |       255       585 |
|     12489 |    6029   277590 25195077 |     7558     4047     60 |        0 |       358      1159 |
|     18524 |    6029   277859 25201304 |     8791     6315     72 |        0 |       494      1428 |
|     27550 |    6029   278236 25209296 |    11206     5956     57 |        0 |       724      1805 |
|     42572 |    6029   280284 25245255 |    13612     9184     55 |        0 |       992      3853 |
|     63042 |    6029   281293 25266443 |    16007    15449     76 |        0 |      1313      4862 |
|     94160 |    6029   283219 25309617 |    20804    10964     47 |        0 |      1784      6788 |
|    138864 |    6029   284134 25328395 |    24407    22671     78 |        0 |      2162      7703 |
|    205549 |    6029   285135 25348679 |    30407    22356     69 |        0 |      2508      8704 |
|    307862 |    6029   288922 25416429 |    37612    24474     56 |        0 |      3268     12491 |
|    473707 |    6029   306978 25784886 |    47216    23123     44 |        0 |      7906     30547 |
|    709019 |    6029   320607 26026735 |    56813    52832     78 |        0 |     13386     44176 |
|   1071857 |    6029   350920 26457385 |    71219    35276     48 |        0 |     24624     74489 |
|   1600855 |    6029   381130 26939805 |    86828    54683     62 |        0 |     35322    104699 |
|   2391220 |    6029   423313 27596223 |   106016    78636     73 |        0 |     47858    146882 |
|   3574900 |    6029   484719 28570135 |   130018    88318     63 |        0 |     63055    208288 |
=====================================================================================================
Number of solutions   : 2
Canonical subgraphs   : 83968          (38 /sec)
          order  3    : 1              (200000 /sec)
          order  4    : 1              (500000 /sec)
          order  5    : 1              (250000 /sec)
          order  6    : 1              (58824 /sec)
          order  7    : 2              (10526 /sec)
          order  8    : 4              (2070 /sec)
          order  9    : 14             (552 /sec)
          order 10    : 52             (171 /sec)
          order 11    : 286            (85 /sec)
          order 12    : 1020           (61 /sec)
          order 13    : 1615           (77 /sec)
          order 14    : 13626          (55 /sec)
          order 15    : 43213          (41 /sec)
          order 16    : 13015          (32 /sec)
          order 17    : 6215           (25 /sec)
          order 18    : 1462           (25 /sec)
          order 19    : 1243           (24 /sec)
          order 20    : 1061           (23 /sec)
          order 21    : 1134           (22 /sec)
          order 22    : 2              (1 /sec)
Noncanonical subgraphs: 283454         (322 /sec)
          order  3    : 0              (-nan /sec)
          order  4    : 0              (-nan /sec)
          order  5    : 0              (-nan /sec)
          order  6    : 0              (-nan /sec)
          order  7    : 0              (-nan /sec)
          order  8    : 0              (-nan /sec)
          order  9    : 0              (-nan /sec)
          order 10    : 0              (-nan /sec)
          order 11    : 0              (-nan /sec)
          order 12    : 0              (-nan /sec)
          order 13    : 19372          (2424 /sec)
          order 14    : 22236          (2620 /sec)
          order 15    : 222751         (321 /sec)
          order 16    : 13968          (203 /sec)
          order 17    : 3816           (108 /sec)
          order 18    : 17             (212 /sec)
          order 19    : 38             (126 /sec)
          order 20    : 8              (63 /sec)
          order 21    : 0              (-nan /sec)
Canonicity checking   : 2201.4 s
Noncanonicity checking: 879.991 s
Total canonicity time : 3081.39 s
database reductions   : 125
restarts              : 8191
conflicts             : 4928644        (829 /sec)
decisions             : 6141570        (0.00 % random) (1034 /sec)
propagations          : 566625056      (95355 /sec)
conflict literals     : 576583673      (53.48 % deleted)
actual reward         : 0.102055
Memory used           : 405.00 MB
CPU time              : 5942.25 s

UNSATISFIABLE
